[[1,24,29,38,39,55,64,200,201,214,215,225,229,250,253,272,394,399,409,424,457,459,709,735,756],[2,47,82,161,166,174,192,198,348,363,366,371,375,376,670,671,684,691,704,958,959,964,991,994,999],[65,70,73,75,273,276,296,310,317,398,466,473,480,532,566,711,730,753,764,786,795,802,828,832,835],[68,89,113,137,153,156,324,338,342,344,346,550,572,579,586,594,607,632,633,848,851,857,920,926,941]]